NAME : portcgen-25-31
COMMENT : portcgen N=25, seed=31
TYPE : TSP
DIMENSION : 25
EDGE_WEIGHT_TYPE : EUC_2D
NODE_COORD_SECTION
1 -87358 117626
2 -234669 -13436
3 -69441 -192919
4 39945 88020
5 -328156 -256147
6 87949 -199916
7 235845 -196899
8 -157935 197638
9 -32952 47020
10 -390237 -147681
11 -164098 -221741
12 -160609 -67833
13 15383 -471272
14 -127472 115201
15 -36113 55456
16 -295224 233466
17 483940 152402
18 -52039 252637
19 -8432 251595
20 189580 116185
21 186238 -229397
22 -253896 -152906
23 226676 -217800
24 55830 348020
25 -232919 92403
